875,265
1006,355
1001,243
1028,229
694,380
624,424
448,173
342,160
415,364
576,551
567,443
510,351
453,332
366,635
681,826
801,776
368,507
505,164
598,150
935,152
923,230
681,916
810,805
977,702
822,600
829,554
894,514
951,406
1051,526
1125,476
